alldifferent-ls/benchmarks_sat/mols_4.cnf
p cnf 204 3312
1 2 3 4 0
-1 -2 0
-1 -3 0
-1 -4 0
-2 -3 0
-2 -4 0
-3 -4 0
65 66 67 68 0
-65 -66 0
-65 -67 0
-65 -68 0
-66 -67 0
-66 -68 0
-67 -68 0
5 6 7 8 0
-5 -6 0
-5 -7 0
-5 -8 0
-6 -7 0
-6 -8 0
-7 -8 0
69 70 71 72 0
-69 -70 0
-69 -71 0
-69 -72 0
-70 -71 0
-70 -72 0
-71 -72 0
9 10 11 12 0
-9 -10 0
-9 -11 0
-9 -12 0
-10 -11 0
-10 -12 0
-11 -12 0
73 74 75 76 0
-73 -74 0
-73 -75 0
-73 -76 0
-74 -75 0
-74 -76 0
-75 -76 0
13 14 15 16 0
-13 -14 0
-13 -15 0
-13 -16 0
-14 -15 0
-14 -16 0
-15 -16 0
77 78 79 80 0
-77 -78 0
-77 -79 0
-77 -80 0
-78 -79 0
-78 -80 0
-79 -80 0
17 18 19 20 0
-17 -18 0
-17 -19 0
-17 -20 0
-18 -19 0
-18 -20 0
-19 -20 0
81 82 83 84 0
-81 -82 0
-81 -83 0
-81 -84 0
-82 -83 0
-82 -84 0
-83 -84 0
21 22 23 24 0
-21 -22 0
-21 -23 0
-21 -24 0
-22 -23 0
-22 -24 0
-23 -24 0
85 86 87 88 0
-85 -86 0
-85 -87 0
-85 -88 0
-86 -87 0
-86 -88 0
-87 -88 0
25 26 27 28 0
-25 -26 0
-25 -27 0
-25 -28 0
-26 -27 0
-26 -28 0
-27 -28 0
89 90 91 92 0
-89 -90 0
-89 -91 0
-89 -92 0
-90 -91 0
-90 -92 0
-91 -92 0
29 30 31 32 0
-29 -30 0
-29 -31 0
-29 -32 0
-30 -31 0
-30 -32 0
-31 -32 0
93 94 95 96 0
-93 -94 0
-93 -95 0
-93 -96 0
-94 -95 0
-94 -96 0
-95 -96 0
33 34 35 36 0
-33 -34 0
-33 -35 0
-33 -36 0
-34 -35 0
-34 -36 0
-35 -36 0
97 98 99 100 0
-97 -98 0
-97 -99 0
-97 -100 0
-98 -99 0
-98 -100 0
-99 -100 0
37 38 39 40 0
-37 -38 0
-37 -39 0
-37 -40 0
-38 -39 0
-38 -40 0
-39 -40 0
101 102 103 104 0
-101 -102 0
-101 -103 0
-101 -104 0
-102 -103 0
-102 -104 0
-103 -104 0
41 42 43 44 0
-41 -42 0
-41 -43 0
-41 -44 0
-42 -43 0
-42 -44 0
-43 -44 0
105 106 107 108 0
-105 -106 0
-105 -107 0
-105 -108 0
-106 -107 0
-106 -108 0
-107 -108 0
45 46 47 48 0
-45 -46 0
-45 -47 0
-45 -48 0
-46 -47 0
-46 -48 0
-47 -48 0
109 110 111 112 0
-109 -110 0
-109 -111 0
-109 -112 0
-110 -111 0
-110 -112 0
-111 -112 0
49 50 51 52 0
-49 -50 0
-49 -51 0
-49 -52 0
-50 -51 0
-50 -52 0
-51 -52 0
113 114 115 116 0
-113 -114 0
-113 -115 0
-113 -116 0
-114 -115 0
-114 -116 0
-115 -116 0
53 54 55 56 0
-53 -54 0
-53 -55 0
-53 -56 0
-54 -55 0
-54 -56 0
-55 -56 0
117 118 119 120 0
-117 -118 0
-117 -119 0
-117 -120 0
-118 -119 0
-118 -120 0
-119 -120 0
57 58 59 60 0
-57 -58 0
-57 -59 0
-57 -60 0
-58 -59 0
-58 -60 0
-59 -60 0
121 122 123 124 0
-121 -122 0
-121 -123 0
-121 -124 0
-122 -123 0
-122 -124 0
-123 -124 0
61 62 63 64 0
-61 -62 0
-61 -63 0
-61 -64 0
-62 -63 0
-62 -64 0
-63 -64 0
125 126 127 128 0
-125 -126 0
-125 -127 0
-125 -128 0
-126 -127 0
-126 -128 0
-127 -128 0
-1 -5 0
-1 -9 0
-1 -13 0
-5 -9 0
-5 -13 0
-9 -13 0
-1 -17 0
-1 -33 0
-1 -49 0
-17 -33 0
-17 -49 0
-33 -49 0
-17 -21 0
-17 -25 0
-17 -29 0
-21 -25 0
-21 -29 0
-25 -29 0
-1 -17 0
-1 -33 0
-1 -49 0
-17 -33 0
-17 -49 0
-33 -49 0
-33 -37 0
-33 -41 0
-33 -45 0
-37 -41 0
-37 -45 0
-41 -45 0
-1 -17 0
-1 -33 0
-1 -49 0
-17 -33 0
-17 -49 0
-33 -49 0
-49 -53 0
-49 -57 0
-49 -61 0
-53 -57 0
-53 -61 0
-57 -61 0
-1 -17 0
-1 -33 0
-1 -49 0
-17 -33 0
-17 -49 0
-33 -49 0
-2 -6 0
-2 -10 0
-2 -14 0
-6 -10 0
-6 -14 0
-10 -14 0
-6 -22 0
-6 -38 0
-6 -54 0
-22 -38 0
-22 -54 0
-38 -54 0
-18 -22 0
-18 -26 0
-18 -30 0
-22 -26 0
-22 -30 0
-26 -30 0
-6 -22 0
-6 -38 0
-6 -54 0
-22 -38 0
-22 -54 0
-38 -54 0
-34 -38 0
-34 -42 0
-34 -46 0
-38 -42 0
-38 -46 0
-42 -46 0
-6 -22 0
-6 -38 0
-6 -54 0
-22 -38 0
-22 -54 0
-38 -54 0
-50 -54 0
-50 -58 0
-50 -62 0
-54 -58 0
-54 -62 0
-58 -62 0
-6 -22 0
-6 -38 0
-6 -54 0
-22 -38 0
-22 -54 0
-38 -54 0
-3 -7 0
-3 -11 0
-3 -15 0
-7 -11 0
-7 -15 0
-11 -15 0
-11 -27 0
-11 -43 0
-11 -59 0
-27 -43 0
-27 -59 0
-43 -59 0
-19 -23 0
-19 -27 0
-19 -31 0
-23 -27 0
-23 -31 0
-27 -31 0
-11 -27 0
-11 -43 0
-11 -59 0
-27 -43 0
-27 -59 0
-43 -59 0
-35 -39 0
-35 -43 0
-35 -47 0
-39 -43 0
-39 -47 0
-43 -47 0
-11 -27 0
-11 -43 0
-11 -59 0
-27 -43 0
-27 -59 0
-43 -59 0
-51 -55 0
-51 -59 0
-51 -63 0
-55 -59 0
-55 -63 0
-59 -63 0
-11 -27 0
-11 -43 0
-11 -59 0
-27 -43 0
-27 -59 0
-43 -59 0
-4 -8 0
-4 -12 0
-4 -16 0
-8 -12 0
-8 -16 0
-12 -16 0
-16 -32 0
-16 -48 0
-16 -64 0
-32 -48 0
-32 -64 0
-48 -64 0
-20 -24 0
-20 -28 0
-20 -32 0
-24 -28 0
-24 -32 0
-28 -32 0
-16 -32 0
-16 -48 0
-16 -64 0
-32 -48 0
-32 -64 0
-48 -64 0
-36 -40 0
-36 -44 0
-36 -48 0
-40 -44 0
-40 -48 0
-44 -48 0
-16 -32 0
-16 -48 0
-16 -64 0
-32 -48 0
-32 -64 0
-48 -64 0
-52 -56 0
-52 -60 0
-52 -64 0
-56 -60 0
-56 -64 0
-60 -64 0
-16 -32 0
-16 -48 0
-16 -64 0
-32 -48 0
-32 -64 0
-48 -64 0
-65 -69 0
-65 -73 0
-65 -77 0
-69 -73 0
-69 -77 0
-73 -77 0
-65 -81 0
-65 -97 0
-65 -113 0
-81 -97 0
-81 -113 0
-97 -113 0
-81 -85 0
-81 -89 0
-81 -93 0
-85 -89 0
-85 -93 0
-89 -93 0
-65 -81 0
-65 -97 0
-65 -113 0
-81 -97 0
-81 -113 0
-97 -113 0
-97 -101 0
-97 -105 0
-97 -109 0
-101 -105 0
-101 -109 0
-105 -109 0
-65 -81 0
-65 -97 0
-65 -113 0
-81 -97 0
-81 -113 0
-97 -113 0
-113 -117 0
-113 -121 0
-113 -125 0
-117 -121 0
-117 -125 0
-121 -125 0
-65 -81 0
-65 -97 0
-65 -113 0
-81 -97 0
-81 -113 0
-97 -113 0
-66 -70 0
-66 -74 0
-66 -78 0
-70 -74 0
-70 -78 0
-74 -78 0
-70 -86 0
-70 -102 0
-70 -118 0
-86 -102 0
-86 -118 0
-102 -118 0
-82 -86 0
-82 -90 0
-82 -94 0
-86 -90 0
-86 -94 0
-90 -94 0
-70 -86 0
-70 -102 0
-70 -118 0
-86 -102 0
-86 -118 0
-102 -118 0
-98 -102 0
-98 -106 0
-98 -110 0
-102 -106 0
-102 -110 0
-106 -110 0
-70 -86 0
-70 -102 0
-70 -118 0
-86 -102 0
-86 -118 0
-102 -118 0
-114 -118 0
-114 -122 0
-114 -126 0
-118 -122 0
-118 -126 0
-122 -126 0
-70 -86 0
-70 -102 0
-70 -118 0
-86 -102 0
-86 -118 0
-102 -118 0
-67 -71 0
-67 -75 0
-67 -79 0
-71 -75 0
-71 -79 0
-75 -79 0
-75 -91 0
-75 -107 0
-75 -123 0
-91 -107 0
-91 -123 0
-107 -123 0
-83 -87 0
-83 -91 0
-83 -95 0
-87 -91 0
-87 -95 0
-91 -95 0
-75 -91 0
-75 -107 0
-75 -123 0
-91 -107 0
-91 -123 0
-107 -123 0
-99 -103 0
-99 -107 0
-99 -111 0
-103 -107 0
-103 -111 0
-107 -111 0
-75 -91 0
-75 -107 0
-75 -123 0
-91 -107 0
-91 -123 0
-107 -123 0
-115 -119 0
-115 -123 0
-115 -127 0
-119 -123 0
-119 -127 0
-123 -127 0
-75 -91 0
-75 -107 0
-75 -123 0
-91 -107 0
-91 -123 0
-107 -123 0
-68 -72 0
-68 -76 0
-68 -80 0
-72 -76 0
-72 -80 0
-76 -80 0
-80 -96 0
-80 -112 0
-80 -128 0
-96 -112 0
-96 -128 0
-112 -128 0
-84 -88 0
-84 -92 0
-84 -96 0
-88 -92 0
-88 -96 0
-92 -96 0
-80 -96 0
-80 -112 0
-80 -128 0
-96 -112 0
-96 -128 0
-112 -128 0
-100 -104 0
-100 -108 0
-100 -112 0
-104 -108 0
-104 -112 0
-108 -112 0
-80 -96 0
-80 -112 0
-80 -128 0
-96 -112 0
-96 -128 0
-112 -128 0
-116 -120 0
-116 -124 0
-116 -128 0
-120 -124 0
-120 -128 0
-124 -128 0
-80 -96 0
-80 -112 0
-80 -128 0
-96 -112 0
-96 -128 0
-112 -128 0
-129 1 0
-129 65 0
129 -1 -65 0
-130 1 0
-130 66 0
130 -1 -66 0
-131 1 0
-131 67 0
131 -1 -67 0
-132 1 0
-132 68 0
132 -1 -68 0
-133 2 0
-133 65 0
133 -2 -65 0
-134 2 0
-134 66 0
134 -2 -66 0
-135 2 0
-135 67 0
135 -2 -67 0
-136 2 0
-136 68 0
136 -2 -68 0
-137 3 0
-137 65 0
137 -3 -65 0
-138 3 0
-138 66 0
138 -3 -66 0
-139 3 0
-139 67 0
139 -3 -67 0
-140 3 0
-140 68 0
140 -3 -68 0
-141 4 0
-141 65 0
141 -4 -65 0
-142 4 0
-142 66 0
142 -4 -66 0
-143 4 0
-143 67 0
143 -4 -67 0
-144 4 0
-144 68 0
144 -4 -68 0
-133 5 0
-133 69 0
133 -5 -69 0
-134 5 0
-134 70 0
134 -5 -70 0
-135 5 0
-135 71 0
135 -5 -71 0
-136 5 0
-136 72 0
136 -5 -72 0
-137 6 0
-137 69 0
137 -6 -69 0
-138 6 0
-138 70 0
138 -6 -70 0
-139 6 0
-139 71 0
139 -6 -71 0
-140 6 0
-140 72 0
140 -6 -72 0
-141 7 0
-141 69 0
141 -7 -69 0
-142 7 0
-142 70 0
142 -7 -70 0
-143 7 0
-143 71 0
143 -7 -71 0
-144 7 0
-144 72 0
144 -7 -72 0
-145 8 0
-145 69 0
145 -8 -69 0
-146 8 0
-146 70 0
146 -8 -70 0
-147 8 0
-147 71 0
147 -8 -71 0
-148 8 0
-148 72 0
148 -8 -72 0
-137 9 0
-137 73 0
137 -9 -73 0
-138 9 0
-138 74 0
138 -9 -74 0
-139 9 0
-139 75 0
139 -9 -75 0
-140 9 0
-140 76 0
140 -9 -76 0
-141 10 0
-141 73 0
141 -10 -73 0
-142 10 0
-142 74 0
142 -10 -74 0
-143 10 0
-143 75 0
143 -10 -75 0
-144 10 0
-144 76 0
144 -10 -76 0
-145 11 0
-145 73 0
145 -11 -73 0
-146 11 0
-146 74 0
146 -11 -74 0
-147 11 0
-147 75 0
147 -11 -75 0
-148 11 0
-148 76 0
148 -11 -76 0
-149 12 0
-149 73 0
149 -12 -73 0
-150 12 0
-150 74 0
150 -12 -74 0
-151 12 0
-151 75 0
151 -12 -75 0
-152 12 0
-152 76 0
152 -12 -76 0
-141 13 0
-141 77 0
141 -13 -77 0
-142 13 0
-142 78 0
142 -13 -78 0
-143 13 0
-143 79 0
143 -13 -79 0
-144 13 0
-144 80 0
144 -13 -80 0
-145 14 0
-145 77 0
145 -14 -77 0
-146 14 0
-146 78 0
146 -14 -78 0
-147 14 0
-147 79 0
147 -14 -79 0
-148 14 0
-148 80 0
148 -14 -80 0
-149 15 0
-149 77 0
149 -15 -77 0
-150 15 0
-150 78 0
150 -15 -78 0
-151 15 0
-151 79 0
151 -15 -79 0
-152 15 0
-152 80 0
152 -15 -80 0
-153 16 0
-153 77 0
153 -16 -77 0
-154 16 0
-154 78 0
154 -16 -78 0
-155 16 0
-155 79 0
155 -16 -79 0
-156 16 0
-156 80 0
156 -16 -80 0
-145 17 0
-145 81 0
145 -17 -81 0
-146 17 0
-146 82 0
146 -17 -82 0
-147 17 0
-147 83 0
147 -17 -83 0
-148 17 0
-148 84 0
148 -17 -84 0
-149 18 0
-149 81 0
149 -18 -81 0
-150 18 0
-150 82 0
150 -18 -82 0
-151 18 0
-151 83 0
151 -18 -83 0
-152 18 0
-152 84 0
152 -18 -84 0
-153 19 0
-153 81 0
153 -19 -81 0
-154 19 0
-154 82 0
154 -19 -82 0
-155 19 0
-155 83 0
155 -19 -83 0
-156 19 0
-156 84 0
156 -19 -84 0
-157 20 0
-157 81 0
157 -20 -81 0
-158 20 0
-158 82 0
158 -20 -82 0
-159 20 0
-159 83 0
159 -20 -83 0
-160 20 0
-160 84 0
160 -20 -84 0
-149 21 0
-149 85 0
149 -21 -85 0
-150 21 0
-150 86 0
150 -21 -86 0
-151 21 0
-151 87 0
151 -21 -87 0
-152 21 0
-152 88 0
152 -21 -88 0
-153 22 0
-153 85 0
153 -22 -85 0
-154 22 0
-154 86 0
154 -22 -86 0
-155 22 0
-155 87 0
155 -22 -87 0
-156 22 0
-156 88 0
156 -22 -88 0
-157 23 0
-157 85 0
157 -23 -85 0
-158 23 0
-158 86 0
158 -23 -86 0
-159 23 0
-159 87 0
159 -23 -87 0
-160 23 0
-160 88 0
160 -23 -88 0
-161 24 0
-161 85 0
161 -24 -85 0
-162 24 0
-162 86 0
162 -24 -86 0
-163 24 0
-163 87 0
163 -24 -87 0
-164 24 0
-164 88 0
164 -24 -88 0
-153 25 0
-153 89 0
153 -25 -89 0
-154 25 0
-154 90 0
154 -25 -90 0
-155 25 0
-155 91 0
155 -25 -91 0
-156 25 0
-156 92 0
156 -25 -92 0
-157 26 0
-157 89 0
157 -26 -89 0
-158 26 0
-158 90 0
158 -26 -90 0
-159 26 0
-159 91 0
159 -26 -91 0
-160 26 0
-160 92 0
160 -26 -92 0
-161 27 0
-161 89 0
161 -27 -89 0
-162 27 0
-162 90 0
162 -27 -90 0
-163 27 0
-163 91 0
163 -27 -91 0
-164 27 0
-164 92 0
164 -27 -92 0
-165 28 0
-165 89 0
165 -28 -89 0
-166 28 0
-166 90 0
166 -28 -90 0
-167 28 0
-167 91 0
167 -28 -91 0
-168 28 0
-168 92 0
168 -28 -92 0
-157 29 0
-157 93 0
157 -29 -93 0
-158 29 0
-158 94 0
158 -29 -94 0
-159 29 0
-159 95 0
159 -29 -95 0
-160 29 0
-160 96 0
160 -29 -96 0
-161 30 0
-161 93 0
161 -30 -93 0
-162 30 0
-162 94 0
162 -30 -94 0
-163 30 0
-163 95 0
163 -30 -95 0
-164 30 0
-164 96 0
164 -30 -96 0
-165 31 0
-165 93 0
165 -31 -93 0
-166 31 0
-166 94 0
166 -31 -94 0
-167 31 0
-167 95 0
167 -31 -95 0
-168 31 0
-168 96 0
168 -31 -96 0
-169 32 0
-169 93 0
169 -32 -93 0
-170 32 0
-170 94 0
170 -32 -94 0
-171 32 0
-171 95 0
171 -32 -95 0
-172 32 0
-172 96 0
172 -32 -96 0
-161 33 0
-161 97 0
161 -33 -97 0
-162 33 0
-162 98 0
162 -33 -98 0
-163 33 0
-163 99 0
163 -33 -99 0
-164 33 0
-164 100 0
164 -33 -100 0
-165 34 0
-165 97 0
165 -34 -97 0
-166 34 0
-166 98 0
166 -34 -98 0
-167 34 0
-167 99 0
167 -34 -99 0
-168 34 0
-168 100 0
168 -34 -100 0
-169 35 0
-169 97 0
169 -35 -97 0
-170 35 0
-170 98 0
170 -35 -98 0
-171 35 0
-171 99 0
171 -35 -99 0
-172 35 0
-172 100 0
172 -35 -100 0
-173 36 0
-173 97 0
173 -36 -97 0
-174 36 0
-174 98 0
174 -36 -98 0
-175 36 0
-175 99 0
175 -36 -99 0
-176 36 0
-176 100 0
176 -36 -100 0
-165 37 0
-165 101 0
165 -37 -101 0
-166 37 0
-166 102 0
166 -37 -102 0
-167 37 0
-167 103 0
167 -37 -103 0
-168 37 0
-168 104 0
168 -37 -104 0
-169 38 0
-169 101 0
169 -38 -101 0
-170 38 0
-170 102 0
170 -38 -102 0
-171 38 0
-171 103 0
171 -38 -103 0
-172 38 0
-172 104 0
172 -38 -104 0
-173 39 0
-173 101 0
173 -39 -101 0
-174 39 0
-174 102 0
174 -39 -102 0
-175 39 0
-175 103 0
175 -39 -103 0
-176 39 0
-176 104 0
176 -39 -104 0
-177 40 0
-177 101 0
177 -40 -101 0
-178 40 0
-178 102 0
178 -40 -102 0
-179 40 0
-179 103 0
179 -40 -103 0
-180 40 0
-180 104 0
180 -40 -104 0
-169 41 0
-169 105 0
169 -41 -105 0
-170 41 0
-170 106 0
170 -41 -106 0
-171 41 0
-171 107 0
171 -41 -107 0
-172 41 0
-172 108 0
172 -41 -108 0
-173 42 0
-173 105 0
173 -42 -105 0
-174 42 0
-174 106 0
174 -42 -106 0
-175 42 0
-175 107 0
175 -42 -107 0
-176 42 0
-176 108 0
176 -42 -108 0
-177 43 0
-177 105 0
177 -43 -105 0
-178 43 0
-178 106 0
178 -43 -106 0
-179 43 0
-179 107 0
179 -43 -107 0
-180 43 0
-180 108 0
180 -43 -108 0
-181 44 0
-181 105 0
181 -44 -105 0
-182 44 0
-182 106 0
182 -44 -106 0
-183 44 0
-183 107 0
183 -44 -107 0
-184 44 0
-184 108 0
184 -44 -108 0
-173 45 0
-173 109 0
173 -45 -109 0
-174 45 0
-174 110 0
174 -45 -110 0
-175 45 0
-175 111 0
175 -45 -111 0
-176 45 0
-176 112 0
176 -45 -112 0
-177 46 0
-177 109 0
177 -46 -109 0
-178 46 0
-178 110 0
178 -46 -110 0
-179 46 0
-179 111 0
179 -46 -111 0
-180 46 0
-180 112 0
180 -46 -112 0
-181 47 0
-181 109 0
181 -47 -109 0
-182 47 0
-182 110 0
182 -47 -110 0
-183 47 0
-183 111 0
183 -47 -111 0
-184 47 0
-184 112 0
184 -47 -112 0
-185 48 0
-185 109 0
185 -48 -109 0
-186 48 0
-186 110 0
186 -48 -110 0
-187 48 0
-187 111 0
187 -48 -111 0
-188 48 0
-188 112 0
188 -48 -112 0
-177 49 0
-177 113 0
177 -49 -113 0
-178 49 0
-178 114 0
178 -49 -114 0
-179 49 0
-179 115 0
179 -49 -115 0
-180 49 0
-180 116 0
180 -49 -116 0
-181 50 0
-181 113 0
181 -50 -113 0
-182 50 0
-182 114 0
182 -50 -114 0
-183 50 0
-183 115 0
183 -50 -115 0
-184 50 0
-184 116 0
184 -50 -116 0
-185 51 0
-185 113 0
185 -51 -113 0
-186 51 0
-186 114 0
186 -51 -114 0
-187 51 0
-187 115 0
187 -51 -115 0
-188 51 0
-188 116 0
188 -51 -116 0
-189 52 0
-189 113 0
189 -52 -113 0
-190 52 0
-190 114 0
190 -52 -114 0
-191 52 0
-191 115 0
191 -52 -115 0
-192 52 0
-192 116 0
192 -52 -116 0
-181 53 0
-181 117 0
181 -53 -117 0
-182 53 0
-182 118 0
182 -53 -118 0
-183 53 0
-183 119 0
183 -53 -119 0
-184 53 0
-184 120 0
184 -53 -120 0
-185 54 0
-185 117 0
185 -54 -117 0
-186 54 0
-186 118 0
186 -54 -118 0
-187 54 0
-187 119 0
187 -54 -119 0
-188 54 0
-188 120 0
188 -54 -120 0
-189 55 0
-189 117 0
189 -55 -117 0
-190 55 0
-190 118 0
190 -55 -118 0
-191 55 0
-191 119 0
191 -55 -119 0
-192 55 0
-192 120 0
192 -55 -120 0
-193 56 0
-193 117 0
193 -56 -117 0
-194 56 0
-194 118 0
194 -56 -118 0
-195 56 0
-195 119 0
195 -56 -119 0
-196 56 0
-196 120 0
196 -56 -120 0
-185 57 0
-185 121 0
185 -57 -121 0
-186 57 0
-186 122 0
186 -57 -122 0
-187 57 0
-187 123 0
187 -57 -123 0
-188 57 0
-188 124 0
188 -57 -124 0
-189 58 0
-189 121 0
189 -58 -121 0
-190 58 0
-190 122 0
190 -58 -122 0
-191 58 0
-191 123 0
191 -58 -123 0
-192 58 0
-192 124 0
192 -58 -124 0
-193 59 0
-193 121 0
193 -59 -121 0
-194 59 0
-194 122 0
194 -59 -122 0
-195 59 0
-195 123 0
195 -59 -123 0
-196 59 0
-196 124 0
196 -59 -124 0
-197 60 0
-197 121 0
197 -60 -121 0
-198 60 0
-198 122 0
198 -60 -122 0
-199 60 0
-199 123 0
199 -60 -123 0
-200 60 0
-200 124 0
200 -60 -124 0
-189 61 0
-189 125 0
189 -61 -125 0
-190 61 0
-190 126 0
190 -61 -126 0
-191 61 0
-191 127 0
191 -61 -127 0
-192 61 0
-192 128 0
192 -61 -128 0
-193 62 0
-193 125 0
193 -62 -125 0
-194 62 0
-194 126 0
194 -62 -126 0
-195 62 0
-195 127 0
195 -62 -127 0
-196 62 0
-196 128 0
196 -62 -128 0
-197 63 0
-197 125 0
197 -63 -125 0
-198 63 0
-198 126 0
198 -63 -126 0
-199 63 0
-199 127 0
199 -63 -127 0
-200 63 0
-200 128 0
200 -63 -128 0
-201 64 0
-201 125 0
201 -64 -125 0
-202 64 0
-202 126 0
202 -64 -126 0
-203 64 0
-203 127 0
203 -64 -127 0
-204 64 0
-204 128 0
204 -64 -128 0
129 133 137 141 145 149 153 157 161 165 169 173 177 181 185 189 0
-129 -133 0
-129 -137 0
-129 -141 0
-129 -145 0
-129 -149 0
-129 -153 0
-129 -157 0
-129 -161 0
-129 -165 0
-129 -169 0
-129 -173 0
-129 -177 0
-129 -181 0
-129 -185 0
-129 -189 0
-133 -137 0
-133 -141 0
-133 -145 0
-133 -149 0
-133 -153 0
-133 -157 0
-133 -161 0
-133 -165 0
-133 -169 0
-133 -173 0
-133 -177 0
-133 -181 0
-133 -185 0
-133 -189 0
-137 -141 0
-137 -145 0
-137 -149 0
-137 -153 0
-137 -157 0
-137 -161 0
-137 -165 0
-137 -169 0
-137 -173 0
-137 -177 0
-137 -181 0
-137 -185 0
-137 -189 0
-141 -145 0
-141 -149 0
-141 -153 0
-141 -157 0
-141 -161 0
-141 -165 0
-141 -169 0
-141 -173 0
-141 -177 0
-141 -181 0
-141 -185 0
-141 -189 0
-145 -149 0
-145 -153 0
-145 -157 0
-145 -161 0
-145 -165 0
-145 -169 0
-145 -173 0
-145 -177 0
-145 -181 0
-145 -185 0
-145 -189 0
-149 -153 0
-149 -157 0
-149 -161 0
-149 -165 0
-149 -169 0
-149 -173 0
-149 -177 0
-149 -181 0
-149 -185 0
-149 -189 0
-153 -157 0
-153 -161 0
-153 -165 0
-153 -169 0
-153 -173 0
-153 -177 0
-153 -181 0
-153 -185 0
-153 -189 0
-157 -161 0
-157 -165 0
-157 -169 0
-157 -173 0
-157 -177 0
-157 -181 0
-157 -185 0
-157 -189 0
-161 -165 0
-161 -169 0
-161 -173 0
-161 -177 0
-161 -181 0
-161 -185 0
-161 -189 0
-165 -169 0
-165 -173 0
-165 -177 0
-165 -181 0
-165 -185 0
-165 -189 0
-169 -173 0
-169 -177 0
-169 -181 0
-169 -185 0
-169 -189 0
-173 -177 0
-173 -181 0
-173 -185 0
-173 -189 0
-177 -181 0
-177 -185 0
-177 -189 0
-181 -185 0
-181 -189 0
-185 -189 0
130 134 138 142 146 150 154 158 162 166 170 174 178 182 186 190 0
-130 -134 0
-130 -138 0
-130 -142 0
-130 -146 0
-130 -150 0
-130 -154 0
-130 -158 0
-130 -162 0
-130 -166 0
-130 -170 0
-130 -174 0
-130 -178 0
-130 -182 0
-130 -186 0
-130 -190 0
-134 -138 0
-134 -142 0
-134 -146 0
-134 -150 0
-134 -154 0
-134 -158 0
-134 -162 0
-134 -166 0
-134 -170 0
-134 -174 0
-134 -178 0
-134 -182 0
-134 -186 0
-134 -190 0
-138 -142 0
-138 -146 0
-138 -150 0
-138 -154 0
-138 -158 0
-138 -162 0
-138 -166 0
-138 -170 0
-138 -174 0
-138 -178 0
-138 -182 0
-138 -186 0
-138 -190 0
-142 -146 0
-142 -150 0
-142 -154 0
-142 -158 0
-142 -162 0
-142 -166 0
-142 -170 0
-142 -174 0
-142 -178 0
-142 -182 0
-142 -186 0
-142 -190 0
-146 -150 0
-146 -154 0
-146 -158 0
-146 -162 0
-146 -166 0
-146 -170 0
-146 -174 0
-146 -178 0
-146 -182 0
-146 -186 0
-146 -190 0
-150 -154 0
-150 -158 0
-150 -162 0
-150 -166 0
-150 -170 0
-150 -174 0
-150 -178 0
-150 -182 0
-150 -186 0
-150 -190 0
-154 -158 0
-154 -162 0
-154 -166 0
-154 -170 0
-154 -174 0
-154 -178 0
-154 -182 0
-154 -186 0
-154 -190 0
-158 -162 0
-158 -166 0
-158 -170 0
-158 -174 0
-158 -178 0
-158 -182 0
-158 -186 0
-158 -190 0
-162 -166 0
-162 -170 0
-162 -174 0
-162 -178 0
-162 -182 0
-162 -186 0
-162 -190 0
-166 -170 0
-166 -174 0
-166 -178 0
-166 -182 0
-166 -186 0
-166 -190 0
-170 -174 0
-170 -178 0
-170 -182 0
-170 -186 0
-170 -190 0
-174 -178 0
-174 -182 0
-174 -186 0
-174 -190 0
-178 -182 0
-178 -186 0
-178 -190 0
-182 -186 0
-182 -190 0
-186 -190 0
131 135 139 143 147 151 155 159 163 167 171 175 179 183 187 191 0
-131 -135 0
-131 -139 0
-131 -143 0
-131 -147 0
-131 -151 0
-131 -155 0
-131 -159 0
-131 -163 0
-131 -167 0
-131 -171 0
-131 -175 0
-131 -179 0
-131 -183 0
-131 -187 0
-131 -191 0
-135 -139 0
-135 -143 0
-135 -147 0
-135 -151 0
-135 -155 0
-135 -159 0
-135 -163 0
-135 -167 0
-135 -171 0
-135 -175 0
-135 -179 0
-135 -183 0
-135 -187 0
-135 -191 0
-139 -143 0
-139 -147 0
-139 -151 0
-139 -155 0
-139 -159 0
-139 -163 0
-139 -167 0
-139 -171 0
-139 -175 0
-139 -179 0
-139 -183 0
-139 -187 0
-139 -191 0
-143 -147 0
-143 -151 0
-143 -155 0
-143 -159 0
-143 -163 0
-143 -167 0
-143 -171 0
-143 -175 0
-143 -179 0
-143 -183 0
-143 -187 0
-143 -191 0
-147 -151 0
-147 -155 0
-147 -159 0
-147 -163 0
-147 -167 0
-147 -171 0
-147 -175 0
-147 -179 0
-147 -183 0
-147 -187 0
-147 -191 0
-151 -155 0
-151 -159 0
-151 -163 0
-151 -167 0
-151 -171 0
-151 -175 0
-151 -179 0
-151 -183 0
-151 -187 0
-151 -191 0
-155 -159 0
-155 -163 0
-155 -167 0
-155 -171 0
-155 -175 0
-155 -179 0
-155 -183 0
-155 -187 0
-155 -191 0
-159 -163 0
-159 -167 0
-159 -171 0
-159 -175 0
-159 -179 0
-159 -183 0
-159 -187 0
-159 -191 0
-163 -167 0
-163 -171 0
-163 -175 0
-163 -179 0
-163 -183 0
-163 -187 0
-163 -191 0
-167 -171 0
-167 -175 0
-167 -179 0
-167 -183 0
-167 -187 0
-167 -191 0
-171 -175 0
-171 -179 0
-171 -183 0
-171 -187 0
-171 -191 0
-175 -179 0
-175 -183 0
-175 -187 0
-175 -191 0
-179 -183 0
-179 -187 0
-179 -191 0
-183 -187 0
-183 -191 0
-187 -191 0
132 136 140 144 148 152 156 160 164 168 172 176 180 184 188 192 0
-132 -136 0
-132 -140 0
-132 -144 0
-132 -148 0
-132 -152 0
-132 -156 0
-132 -160 0
-132 -164 0
-132 -168 0
-132 -172 0
-132 -176 0
-132 -180 0
-132 -184 0
-132 -188 0
-132 -192 0
-136 -140 0
-136 -144 0
-136 -148 0
-136 -152 0
-136 -156 0
-136 -160 0
-136 -164 0
-136 -168 0
-136 -172 0
-136 -176 0
-136 -180 0
-136 -184 0
-136 -188 0
-136 -192 0
-140 -144 0
-140 -148 0
-140 -152 0
-140 -156 0
-140 -160 0
-140 -164 0
-140 -168 0
-140 -172 0
-140 -176 0
-140 -180 0
-140 -184 0
-140 -188 0
-140 -192 0
-144 -148 0
-144 -152 0
-144 -156 0
-144 -160 0
-144 -164 0
-144 -168 0
-144 -172 0
-144 -176 0
-144 -180 0
-144 -184 0
-144 -188 0
-144 -192 0
-148 -152 0
-148 -156 0
-148 -160 0
-148 -164 0
-148 -168 0
-148 -172 0
-148 -176 0
-148 -180 0
-148 -184 0
-148 -188 0
-148 -192 0
-152 -156 0
-152 -160 0
-152 -164 0
-152 -168 0
-152 -172 0
-152 -176 0
-152 -180 0
-152 -184 0
-152 -188 0
-152 -192 0
-156 -160 0
-156 -164 0
-156 -168 0
-156 -172 0
-156 -176 0
-156 -180 0
-156 -184 0
-156 -188 0
-156 -192 0
-160 -164 0
-160 -168 0
-160 -172 0
-160 -176 0
-160 -180 0
-160 -184 0
-160 -188 0
-160 -192 0
-164 -168 0
-164 -172 0
-164 -176 0
-164 -180 0
-164 -184 0
-164 -188 0
-164 -192 0
-168 -172 0
-168 -176 0
-168 -180 0
-168 -184 0
-168 -188 0
-168 -192 0
-172 -176 0
-172 -180 0
-172 -184 0
-172 -188 0
-172 -192 0
-176 -180 0
-176 -184 0
-176 -188 0
-176 -192 0
-180 -184 0
-180 -188 0
-180 -192 0
-184 -188 0
-184 -192 0
-188 -192 0
133 137 141 145 149 153 157 161 165 169 173 177 181 185 189 193 0
-133 -137 0
-133 -141 0
-133 -145 0
-133 -149 0
-133 -153 0
-133 -157 0
-133 -161 0
-133 -165 0
-133 -169 0
-133 -173 0
-133 -177 0
-133 -181 0
-133 -185 0
-133 -189 0
-133 -193 0
-137 -141 0
-137 -145 0
-137 -149 0
-137 -153 0
-137 -157 0
-137 -161 0
-137 -165 0
-137 -169 0
-137 -173 0
-137 -177 0
-137 -181 0
-137 -185 0
-137 -189 0
-137 -193 0
-141 -145 0
-141 -149 0
-141 -153 0
-141 -157 0
-141 -161 0
-141 -165 0
-141 -169 0
-141 -173 0
-141 -177 0
-141 -181 0
-141 -185 0
-141 -189 0
-141 -193 0
-145 -149 0
-145 -153 0
-145 -157 0
-145 -161 0
-145 -165 0
-145 -169 0
-145 -173 0
-145 -177 0
-145 -181 0
-145 -185 0
-145 -189 0
-145 -193 0
-149 -153 0
-149 -157 0
-149 -161 0
-149 -165 0
-149 -169 0
-149 -173 0
-149 -177 0
-149 -181 0
-149 -185 0
-149 -189 0
-149 -193 0
-153 -157 0
-153 -161 0
-153 -165 0
-153 -169 0
-153 -173 0
-153 -177 0
-153 -181 0
-153 -185 0
-153 -189 0
-153 -193 0
-157 -161 0
-157 -165 0
-157 -169 0
-157 -173 0
-157 -177 0
-157 -181 0
-157 -185 0
-157 -189 0
-157 -193 0
-161 -165 0
-161 -169 0
-161 -173 0
-161 -177 0
-161 -181 0
-161 -185 0
-161 -189 0
-161 -193 0
-165 -169 0
-165 -173 0
-165 -177 0
-165 -181 0
-165 -185 0
-165 -189 0
-165 -193 0
-169 -173 0
-169 -177 0
-169 -181 0
-169 -185 0
-169 -189 0
-169 -193 0
-173 -177 0
-173 -181 0
-173 -185 0
-173 -189 0
-173 -193 0
-177 -181 0
-177 -185 0
-177 -189 0
-177 -193 0
-181 -185 0
-181 -189 0
-181 -193 0
-185 -189 0
-185 -193 0
-189 -193 0
134 138 142 146 150 154 158 162 166 170 174 178 182 186 190 194 0
-134 -138 0
-134 -142 0
-134 -146 0
-134 -150 0
-134 -154 0
-134 -158 0
-134 -162 0
-134 -166 0
-134 -170 0
-134 -174 0
-134 -178 0
-134 -182 0
-134 -186 0
-134 -190 0
-134 -194 0
-138 -142 0
-138 -146 0
-138 -150 0
-138 -154 0
-138 -158 0
-138 -162 0
-138 -166 0
-138 -170 0
-138 -174 0
-138 -178 0
-138 -182 0
-138 -186 0
-138 -190 0
-138 -194 0
-142 -146 0
-142 -150 0
-142 -154 0
-142 -158 0
-142 -162 0
-142 -166 0
-142 -170 0
-142 -174 0
-142 -178 0
-142 -182 0
-142 -186 0
-142 -190 0
-142 -194 0
-146 -150 0
-146 -154 0
-146 -158 0
-146 -162 0
-146 -166 0
-146 -170 0
-146 -174 0
-146 -178 0
-146 -182 0
-146 -186 0
-146 -190 0
-146 -194 0
-150 -154 0
-150 -158 0
-150 -162 0
-150 -166 0
-150 -170 0
-150 -174 0
-150 -178 0
-150 -182 0
-150 -186 0
-150 -190 0
-150 -194 0
-154 -158 0
-154 -162 0
-154 -166 0
-154 -170 0
-154 -174 0
-154 -178 0
-154 -182 0
-154 -186 0
-154 -190 0
-154 -194 0
-158 -162 0
-158 -166 0
-158 -170 0
-158 -174 0
-158 -178 0
-158 -182 0
-158 -186 0
-158 -190 0
-158 -194 0
-162 -166 0
-162 -170 0
-162 -174 0
-162 -178 0
-162 -182 0
-162 -186 0
-162 -190 0
-162 -194 0
-166 -170 0
-166 -174 0
-166 -178 0
-166 -182 0
-166 -186 0
-166 -190 0
-166 -194 0
-170 -174 0
-170 -178 0
-170 -182 0
-170 -186 0
-170 -190 0
-170 -194 0
-174 -178 0
-174 -182 0
-174 -186 0
-174 -190 0
-174 -194 0
-178 -182 0
-178 -186 0
-178 -190 0
-178 -194 0
-182 -186 0
-182 -190 0
-182 -194 0
-186 -190 0
-186 -194 0
-190 -194 0
135 139 143 147 151 155 159 163 167 171 175 179 183 187 191 195 0
-135 -139 0
-135 -143 0
-135 -147 0
-135 -151 0
-135 -155 0
-135 -159 0
-135 -163 0
-135 -167 0
-135 -171 0
-135 -175 0
-135 -179 0
-135 -183 0
-135 -187 0
-135 -191 0
-135 -195 0
-139 -143 0
-139 -147 0
-139 -151 0
-139 -155 0
-139 -159 0
-139 -163 0
-139 -167 0
-139 -171 0
-139 -175 0
-139 -179 0
-139 -183 0
-139 -187 0
-139 -191 0
-139 -195 0
-143 -147 0
-143 -151 0
-143 -155 0
-143 -159 0
-143 -163 0
-143 -167 0
-143 -171 0
-143 -175 0
-143 -179 0
-143 -183 0
-143 -187 0
-143 -191 0
-143 -195 0
-147 -151 0
-147 -155 0
-147 -159 0
-147 -163 0
-147 -167 0
-147 -171 0
-147 -175 0
-147 -179 0
-147 -183 0
-147 -187 0
-147 -191 0
-147 -195 0
-151 -155 0
-151 -159 0
-151 -163 0
-151 -167 0
-151 -171 0
-151 -175 0
-151 -179 0
-151 -183 0
-151 -187 0
-151 -191 0
-151 -195 0
-155 -159 0
-155 -163 0
-155 -167 0
-155 -171 0
-155 -175 0
-155 -179 0
-155 -183 0
-155 -187 0
-155 -191 0
-155 -195 0
-159 -163 0
-159 -167 0
-159 -171 0
-159 -175 0
-159 -179 0
-159 -183 0
-159 -187 0
-159 -191 0
-159 -195 0
-163 -167 0
-163 -171 0
-163 -175 0
-163 -179 0
-163 -183 0
-163 -187 0
-163 -191 0
-163 -195 0
-167 -171 0
-167 -175 0
-167 -179 0
-167 -183 0
-167 -187 0
-167 -191 0
-167 -195 0
-171 -175 0
-171 -179 0
-171 -183 0
-171 -187 0
-171 -191 0
-171 -195 0
-175 -179 0
-175 -183 0
-175 -187 0
-175 -191 0
-175 -195 0
-179 -183 0
-179 -187 0
-179 -191 0
-179 -195 0
-183 -187 0
-183 -191 0
-183 -195 0
-187 -191 0
-187 -195 0
-191 -195 0
136 140 144 148 152 156 160 164 168 172 176 180 184 188 192 196 0
-136 -140 0
-136 -144 0
-136 -148 0
-136 -152 0
-136 -156 0
-136 -160 0
-136 -164 0
-136 -168 0
-136 -172 0
-136 -176 0
-136 -180 0
-136 -184 0
-136 -188 0
-136 -192 0
-136 -196 0
-140 -144 0
-140 -148 0
-140 -152 0
-140 -156 0
-140 -160 0
-140 -164 0
-140 -168 0
-140 -172 0
-140 -176 0
-140 -180 0
-140 -184 0
-140 -188 0
-140 -192 0
-140 -196 0
-144 -148 0
-144 -152 0
-144 -156 0
-144 -160 0
-144 -164 0
-144 -168 0
-144 -172 0
-144 -176 0
-144 -180 0
-144 -184 0
-144 -188 0
-144 -192 0
-144 -196 0
-148 -152 0
-148 -156 0
-148 -160 0
-148 -164 0
-148 -168 0
-148 -172 0
-148 -176 0
-148 -180 0
-148 -184 0
-148 -188 0
-148 -192 0
-148 -196 0
-152 -156 0
-152 -160 0
-152 -164 0
-152 -168 0
-152 -172 0
-152 -176 0
-152 -180 0
-152 -184 0
-152 -188 0
-152 -192 0
-152 -196 0
-156 -160 0
-156 -164 0
-156 -168 0
-156 -172 0
-156 -176 0
-156 -180 0
-156 -184 0
-156 -188 0
-156 -192 0
-156 -196 0
-160 -164 0
-160 -168 0
-160 -172 0
-160 -176 0
-160 -180 0
-160 -184 0
-160 -188 0
-160 -192 0
-160 -196 0
-164 -168 0
-164 -172 0
-164 -176 0
-164 -180 0
-164 -184 0
-164 -188 0
-164 -192 0
-164 -196 0
-168 -172 0
-168 -176 0
-168 -180 0
-168 -184 0
-168 -188 0
-168 -192 0
-168 -196 0
-172 -176 0
-172 -180 0
-172 -184 0
-172 -188 0
-172 -192 0
-172 -196 0
-176 -180 0
-176 -184 0
-176 -188 0
-176 -192 0
-176 -196 0
-180 -184 0
-180 -188 0
-180 -192 0
-180 -196 0
-184 -188 0
-184 -192 0
-184 -196 0
-188 -192 0
-188 -196 0
-192 -196 0
137 141 145 149 153 157 161 165 169 173 177 181 185 189 193 197 0
-137 -141 0
-137 -145 0
-137 -149 0
-137 -153 0
-137 -157 0
-137 -161 0
-137 -165 0
-137 -169 0
-137 -173 0
-137 -177 0
-137 -181 0
-137 -185 0
-137 -189 0
-137 -193 0
-137 -197 0
-141 -145 0
-141 -149 0
-141 -153 0
-141 -157 0
-141 -161 0
-141 -165 0
-141 -169 0
-141 -173 0
-141 -177 0
-141 -181 0
-141 -185 0
-141 -189 0
-141 -193 0
-141 -197 0
-145 -149 0
-145 -153 0
-145 -157 0
-145 -161 0
-145 -165 0
-145 -169 0
-145 -173 0
-145 -177 0
-145 -181 0
-145 -185 0
-145 -189 0
-145 -193 0
-145 -197 0
-149 -153 0
-149 -157 0
-149 -161 0
-149 -165 0
-149 -169 0
-149 -173 0
-149 -177 0
-149 -181 0
-149 -185 0
-149 -189 0
-149 -193 0
-149 -197 0
-153 -157 0
-153 -161 0
-153 -165 0
-153 -169 0
-153 -173 0
-153 -177 0
-153 -181 0
-153 -185 0
-153 -189 0
-153 -193 0
-153 -197 0
-157 -161 0
-157 -165 0
-157 -169 0
-157 -173 0
-157 -177 0
-157 -181 0
-157 -185 0
-157 -189 0
-157 -193 0
-157 -197 0
-161 -165 0
-161 -169 0
-161 -173 0
-161 -177 0
-161 -181 0
-161 -185 0
-161 -189 0
-161 -193 0
-161 -197 0
-165 -169 0
-165 -173 0
-165 -177 0
-165 -181 0
-165 -185 0
-165 -189 0
-165 -193 0
-165 -197 0
-169 -173 0
-169 -177 0
-169 -181 0
-169 -185 0
-169 -189 0
-169 -193 0
-169 -197 0
-173 -177 0
-173 -181 0
-173 -185 0
-173 -189 0
-173 -193 0
-173 -197 0
-177 -181 0
-177 -185 0
-177 -189 0
-177 -193 0
-177 -197 0
-181 -185 0
-181 -189 0
-181 -193 0
-181 -197 0
-185 -189 0
-185 -193 0
-185 -197 0
-189 -193 0
-189 -197 0
-193 -197 0
138 142 146 150 154 158 162 166 170 174 178 182 186 190 194 198 0
-138 -142 0
-138 -146 0
-138 -150 0
-138 -154 0
-138 -158 0
-138 -162 0
-138 -166 0
-138 -170 0
-138 -174 0
-138 -178 0
-138 -182 0
-138 -186 0
-138 -190 0
-138 -194 0
-138 -198 0
-142 -146 0
-142 -150 0
-142 -154 0
-142 -158 0
-142 -162 0
-142 -166 0
-142 -170 0
-142 -174 0
-142 -178 0
-142 -182 0
-142 -186 0
-142 -190 0
-142 -194 0
-142 -198 0
-146 -150 0
-146 -154 0
-146 -158 0
-146 -162 0
-146 -166 0
-146 -170 0
-146 -174 0
-146 -178 0
-146 -182 0
-146 -186 0
-146 -190 0
-146 -194 0
-146 -198 0
-150 -154 0
-150 -158 0
-150 -162 0
-150 -166 0
-150 -170 0
-150 -174 0
-150 -178 0
-150 -182 0
-150 -186 0
-150 -190 0
-150 -194 0
-150 -198 0
-154 -158 0
-154 -162 0
-154 -166 0
-154 -170 0
-154 -174 0
-154 -178 0
-154 -182 0
-154 -186 0
-154 -190 0
-154 -194 0
-154 -198 0
-158 -162 0
-158 -166 0
-158 -170 0
-158 -174 0
-158 -178 0
-158 -182 0
-158 -186 0
-158 -190 0
-158 -194 0
-158 -198 0
-162 -166 0
-162 -170 0
-162 -174 0
-162 -178 0
-162 -182 0
-162 -186 0
-162 -190 0
-162 -194 0
-162 -198 0
-166 -170 0
-166 -174 0
-166 -178 0
-166 -182 0
-166 -186 0
-166 -190 0
-166 -194 0
-166 -198 0
-170 -174 0
-170 -178 0
-170 -182 0
-170 -186 0
-170 -190 0
-170 -194 0
-170 -198 0
-174 -178 0
-174 -182 0
-174 -186 0
-174 -190 0
-174 -194 0
-174 -198 0
-178 -182 0
-178 -186 0
-178 -190 0
-178 -194 0
-178 -198 0
-182 -186 0
-182 -190 0
-182 -194 0
-182 -198 0
-186 -190 0
-186 -194 0
-186 -198 0
-190 -194 0
-190 -198 0
-194 -198 0
139 143 147 151 155 159 163 167 171 175 179 183 187 191 195 199 0
-139 -143 0
-139 -147 0
-139 -151 0
-139 -155 0
-139 -159 0
-139 -163 0
-139 -167 0
-139 -171 0
-139 -175 0
-139 -179 0
-139 -183 0
-139 -187 0
-139 -191 0
-139 -195 0
-139 -199 0
-143 -147 0
-143 -151 0
-143 -155 0
-143 -159 0
-143 -163 0
-143 -167 0
-143 -171 0
-143 -175 0
-143 -179 0
-143 -183 0
-143 -187 0
-143 -191 0
-143 -195 0
-143 -199 0
-147 -151 0
-147 -155 0
-147 -159 0
-147 -163 0
-147 -167 0
-147 -171 0
-147 -175 0
-147 -179 0
-147 -183 0
-147 -187 0
-147 -191 0
-147 -195 0
-147 -199 0
-151 -155 0
-151 -159 0
-151 -163 0
-151 -167 0
-151 -171 0
-151 -175 0
-151 -179 0
-151 -183 0
-151 -187 0
-151 -191 0
-151 -195 0
-151 -199 0
-155 -159 0
-155 -163 0
-155 -167 0
-155 -171 0
-155 -175 0
-155 -179 0
-155 -183 0
-155 -187 0
-155 -191 0
-155 -195 0
-155 -199 0
-159 -163 0
-159 -167 0
-159 -171 0
-159 -175 0
-159 -179 0
-159 -183 0
-159 -187 0
-159 -191 0
-159 -195 0
-159 -199 0
-163 -167 0
-163 -171 0
-163 -175 0
-163 -179 0
-163 -183 0
-163 -187 0
-163 -191 0
-163 -195 0
-163 -199 0
-167 -171 0
-167 -175 0
-167 -179 0
-167 -183 0
-167 -187 0
-167 -191 0
-167 -195 0
-167 -199 0
-171 -175 0
-171 -179 0
-171 -183 0
-171 -187 0
-171 -191 0
-171 -195 0
-171 -199 0
-175 -179 0
-175 -183 0
-175 -187 0
-175 -191 0
-175 -195 0
-175 -199 0
-179 -183 0
-179 -187 0
-179 -191 0
-179 -195 0
-179 -199 0
-183 -187 0
-183 -191 0
-183 -195 0
-183 -199 0
-187 -191 0
-187 -195 0
-187 -199 0
-191 -195 0
-191 -199 0
-195 -199 0
140 144 148 152 156 160 164 168 172 176 180 184 188 192 196 200 0
-140 -144 0
-140 -148 0
-140 -152 0
-140 -156 0
-140 -160 0
-140 -164 0
-140 -168 0
-140 -172 0
-140 -176 0
-140 -180 0
-140 -184 0
-140 -188 0
-140 -192 0
-140 -196 0
-140 -200 0
-144 -148 0
-144 -152 0
-144 -156 0
-144 -160 0
-144 -164 0
-144 -168 0
-144 -172 0
-144 -176 0
-144 -180 0
-144 -184 0
-144 -188 0
-144 -192 0
-144 -196 0
-144 -200 0
-148 -152 0
-148 -156 0
-148 -160 0
-148 -164 0
-148 -168 0
-148 -172 0
-148 -176 0
-148 -180 0
-148 -184 0
-148 -188 0
-148 -192 0
-148 -196 0
-148 -200 0
-152 -156 0
-152 -160 0
-152 -164 0
-152 -168 0
-152 -172 0
-152 -176 0
-152 -180 0
-152 -184 0
-152 -188 0
-152 -192 0
-152 -196 0
-152 -200 0
-156 -160 0
-156 -164 0
-156 -168 0
-156 -172 0
-156 -176 0
-156 -180 0
-156 -184 0
-156 -188 0
-156 -192 0
-156 -196 0
-156 -200 0
-160 -164 0
-160 -168 0
-160 -172 0
-160 -176 0
-160 -180 0
-160 -184 0
-160 -188 0
-160 -192 0
-160 -196 0
-160 -200 0
-164 -168 0
-164 -172 0
-164 -176 0
-164 -180 0
-164 -184 0
-164 -188 0
-164 -192 0
-164 -196 0
-164 -200 0
-168 -172 0
-168 -176 0
-168 -180 0
-168 -184 0
-168 -188 0
-168 -192 0
-168 -196 0
-168 -200 0
-172 -176 0
-172 -180 0
-172 -184 0
-172 -188 0
-172 -192 0
-172 -196 0
-172 -200 0
-176 -180 0
-176 -184 0
-176 -188 0
-176 -192 0
-176 -196 0
-176 -200 0
-180 -184 0
-180 -188 0
-180 -192 0
-180 -196 0
-180 -200 0
-184 -188 0
-184 -192 0
-184 -196 0
-184 -200 0
-188 -192 0
-188 -196 0
-188 -200 0
-192 -196 0
-192 -200 0
-196 -200 0
141 145 149 153 157 161 165 169 173 177 181 185 189 193 197 201 0
-141 -145 0
-141 -149 0
-141 -153 0
-141 -157 0
-141 -161 0
-141 -165 0
-141 -169 0
-141 -173 0
-141 -177 0
-141 -181 0
-141 -185 0
-141 -189 0
-141 -193 0
-141 -197 0
-141 -201 0
-145 -149 0
-145 -153 0
-145 -157 0
-145 -161 0
-145 -165 0
-145 -169 0
-145 -173 0
-145 -177 0
-145 -181 0
-145 -185 0
-145 -189 0
-145 -193 0
-145 -197 0
-145 -201 0
-149 -153 0
-149 -157 0
-149 -161 0
-149 -165 0
-149 -169 0
-149 -173 0
-149 -177 0
-149 -181 0
-149 -185 0
-149 -189 0
-149 -193 0
-149 -197 0
-149 -201 0
-153 -157 0
-153 -161 0
-153 -165 0
-153 -169 0
-153 -173 0
-153 -177 0
-153 -181 0
-153 -185 0
-153 -189 0
-153 -193 0
-153 -197 0
-153 -201 0
-157 -161 0
-157 -165 0
-157 -169 0
-157 -173 0
-157 -177 0
-157 -181 0
-157 -185 0
-157 -189 0
-157 -193 0
-157 -197 0
-157 -201 0
-161 -165 0
-161 -169 0
-161 -173 0
-161 -177 0
-161 -181 0
-161 -185 0
-161 -189 0
-161 -193 0
-161 -197 0
-161 -201 0
-165 -169 0
-165 -173 0
-165 -177 0
-165 -181 0
-165 -185 0
-165 -189 0
-165 -193 0
-165 -197 0
-165 -201 0
-169 -173 0
-169 -177 0
-169 -181 0
-169 -185 0
-169 -189 0
-169 -193 0
-169 -197 0
-169 -201 0
-173 -177 0
-173 -181 0
-173 -185 0
-173 -189 0
-173 -193 0
-173 -197 0
-173 -201 0
-177 -181 0
-177 -185 0
-177 -189 0
-177 -193 0
-177 -197 0
-177 -201 0
-181 -185 0
-181 -189 0
-181 -193 0
-181 -197 0
-181 -201 0
-185 -189 0
-185 -193 0
-185 -197 0
-185 -201 0
-189 -193 0
-189 -197 0
-189 -201 0
-193 -197 0
-193 -201 0
-197 -201 0
142 146 150 154 158 162 166 170 174 178 182 186 190 194 198 202 0
-142 -146 0
-142 -150 0
-142 -154 0
-142 -158 0
-142 -162 0
-142 -166 0
-142 -170 0
-142 -174 0
-142 -178 0
-142 -182 0
-142 -186 0
-142 -190 0
-142 -194 0
-142 -198 0
-142 -202 0
-146 -150 0
-146 -154 0
-146 -158 0
-146 -162 0
-146 -166 0
-146 -170 0
-146 -174 0
-146 -178 0
-146 -182 0
-146 -186 0
-146 -190 0
-146 -194 0
-146 -198 0
-146 -202 0
-150 -154 0
-150 -158 0
-150 -162 0
-150 -166 0
-150 -170 0
-150 -174 0
-150 -178 0
-150 -182 0
-150 -186 0
-150 -190 0
-150 -194 0
-150 -198 0
-150 -202 0
-154 -158 0
-154 -162 0
-154 -166 0
-154 -170 0
-154 -174 0
-154 -178 0
-154 -182 0
-154 -186 0
-154 -190 0
-154 -194 0
-154 -198 0
-154 -202 0
-158 -162 0
-158 -166 0
-158 -170 0
-158 -174 0
-158 -178 0
-158 -182 0
-158 -186 0
-158 -190 0
-158 -194 0
-158 -198 0
-158 -202 0
-162 -166 0
-162 -170 0
-162 -174 0
-162 -178 0
-162 -182 0
-162 -186 0
-162 -190 0
-162 -194 0
-162 -198 0
-162 -202 0
-166 -170 0
-166 -174 0
-166 -178 0
-166 -182 0
-166 -186 0
-166 -190 0
-166 -194 0
-166 -198 0
-166 -202 0
-170 -174 0
-170 -178 0
-170 -182 0
-170 -186 0
-170 -190 0
-170 -194 0
-170 -198 0
-170 -202 0
-174 -178 0
-174 -182 0
-174 -186 0
-174 -190 0
-174 -194 0
-174 -198 0
-174 -202 0
-178 -182 0
-178 -186 0
-178 -190 0
-178 -194 0
-178 -198 0
-178 -202 0
-182 -186 0
-182 -190 0
-182 -194 0
-182 -198 0
-182 -202 0
-186 -190 0
-186 -194 0
-186 -198 0
-186 -202 0
-190 -194 0
-190 -198 0
-190 -202 0
-194 -198 0
-194 -202 0
-198 -202 0
143 147 151 155 159 163 167 171 175 179 183 187 191 195 199 203 0
-143 -147 0
-143 -151 0
-143 -155 0
-143 -159 0
-143 -163 0
-143 -167 0
-143 -171 0
-143 -175 0
-143 -179 0
-143 -183 0
-143 -187 0
-143 -191 0
-143 -195 0
-143 -199 0
-143 -203 0
-147 -151 0
-147 -155 0
-147 -159 0
-147 -163 0
-147 -167 0
-147 -171 0
-147 -175 0
-147 -179 0
-147 -183 0
-147 -187 0
-147 -191 0
-147 -195 0
-147 -199 0
-147 -203 0
-151 -155 0
-151 -159 0
-151 -163 0
-151 -167 0
-151 -171 0
-151 -175 0
-151 -179 0
-151 -183 0
-151 -187 0
-151 -191 0
-151 -195 0
-151 -199 0
-151 -203 0
-155 -159 0
-155 -163 0
-155 -167 0
-155 -171 0
-155 -175 0
-155 -179 0
-155 -183 0
-155 -187 0
-155 -191 0
-155 -195 0
-155 -199 0
-155 -203 0
-159 -163 0
-159 -167 0
-159 -171 0
-159 -175 0
-159 -179 0
-159 -183 0
-159 -187 0
-159 -191 0
-159 -195 0
-159 -199 0
-159 -203 0
-163 -167 0
-163 -171 0
-163 -175 0
-163 -179 0
-163 -183 0
-163 -187 0
-163 -191 0
-163 -195 0
-163 -199 0
-163 -203 0
-167 -171 0
-167 -175 0
-167 -179 0
-167 -183 0
-167 -187 0
-167 -191 0
-167 -195 0
-167 -199 0
-167 -203 0
-171 -175 0
-171 -179 0
-171 -183 0
-171 -187 0
-171 -191 0
-171 -195 0
-171 -199 0
-171 -203 0
-175 -179 0
-175 -183 0
-175 -187 0
-175 -191 0
-175 -195 0
-175 -199 0
-175 -203 0
-179 -183 0
-179 -187 0
-179 -191 0
-179 -195 0
-179 -199 0
-179 -203 0
-183 -187 0
-183 -191 0
-183 -195 0
-183 -199 0
-183 -203 0
-187 -191 0
-187 -195 0
-187 -199 0
-187 -203 0
-191 -195 0
-191 -199 0
-191 -203 0
-195 -199 0
-195 -203 0
-199 -203 0
144 148 152 156 160 164 168 172 176 180 184 188 192 196 200 204 0
-144 -148 0
-144 -152 0
-144 -156 0
-144 -160 0
-144 -164 0
-144 -168 0
-144 -172 0
-144 -176 0
-144 -180 0
-144 -184 0
-144 -188 0
-144 -192 0
-144 -196 0
-144 -200 0
-144 -204 0
-148 -152 0
-148 -156 0
-148 -160 0
-148 -164 0
-148 -168 0
-148 -172 0
-148 -176 0
-148 -180 0
-148 -184 0
-148 -188 0
-148 -192 0
-148 -196 0
-148 -200 0
-148 -204 0
-152 -156 0
-152 -160 0
-152 -164 0
-152 -168 0
-152 -172 0
-152 -176 0
-152 -180 0
-152 -184 0
-152 -188 0
-152 -192 0
-152 -196 0
-152 -200 0
-152 -204 0
-156 -160 0
-156 -164 0
-156 -168 0
-156 -172 0
-156 -176 0
-156 -180 0
-156 -184 0
-156 -188 0
-156 -192 0
-156 -196 0
-156 -200 0
-156 -204 0
-160 -164 0
-160 -168 0
-160 -172 0
-160 -176 0
-160 -180 0
-160 -184 0
-160 -188 0
-160 -192 0
-160 -196 0
-160 -200 0
-160 -204 0
-164 -168 0
-164 -172 0
-164 -176 0
-164 -180 0
-164 -184 0
-164 -188 0
-164 -192 0
-164 -196 0
-164 -200 0
-164 -204 0
-168 -172 0
-168 -176 0
-168 -180 0
-168 -184 0
-168 -188 0
-168 -192 0
-168 -196 0
-168 -200 0
-168 -204 0
-172 -176 0
-172 -180 0
-172 -184 0
-172 -188 0
-172 -192 0
-172 -196 0
-172 -200 0
-172 -204 0
-176 -180 0
-176 -184 0
-176 -188 0
-176 -192 0
-176 -196 0
-176 -200 0
-176 -204 0
-180 -184 0
-180 -188 0
-180 -192 0
-180 -196 0
-180 -200 0
-180 -204 0
-184 -188 0
-184 -192 0
-184 -196 0
-184 -200 0
-184 -204 0
-188 -192 0
-188 -196 0
-188 -200 0
-188 -204 0
-192 -196 0
-192 -200 0
-192 -204 0
-196 -200 0
-196 -204 0
-200 -204 0
