alldifferent-ls/results/sat_results/mols_4.result
--------------------------------------------------
benchmarks_sat/mols_4.cnf : 17 ms.
